************************************************************************
file with basedata            : mm55_.bas
initial value random generator: 99960709
************************************************************************
projects                      :  1
jobs (incl. supersource/sink ):  12
horizon                       :  74
RESOURCES
  - renewable                 :  2   R
  - nonrenewable              :  2   N
  - doubly constrained        :  0   D
************************************************************************
PROJECT INFORMATION:
pronr.  #jobs rel.date duedate tardcost  MPM-Time
    1     10      0       13        7       13
************************************************************************
PRECEDENCE RELATIONS:
jobnr.    #modes  #successors   successors
   1        1          3           2   3   4
   2        3          2           9  11
   3        3          2           5   6
   4        3          2           6   7
   5        3          3           7  10  11
   6        3          1          10
   7        3          1           8
   8        3          1           9
   9        3          1          12
  10        3          1          12
  11        3          1          12
  12        1          0        
************************************************************************
REQUESTS/DURATIONS:
jobnr. mode duration  R 1  R 2  N 1  N 2
------------------------------------------------------------------------
  1      1     0       0    0    0    0
  2      1     4       4    7    8    6
         2     5       4    6    7    6
         3     6       3    5    7    5
  3      1     2       4    6    5    9
         2     7       4    5    4    7
         3     9       2    3    3    2
  4      1     2       8    6    8    5
         2     3       7    5    5    4
         3     9       5    5    3    2
  5      1     1      10    5    7    6
         2     3       7    5    5    6
         3     5       2    3    3    5
  6      1     3       9    4    4    6
         2     4       6    3    3    3
         3     7       5    3    3    2
  7      1     1       8    7    2    4
         2     7       6    7    2    4
         3    10       2    7    1    2
  8      1     4       7    5    6    9
         2     5       6    5    4    5
         3     5       7    4    5    5
  9      1     5       6    6    4    8
         2     8       5    5    2    7
         3    10       4    5    2    6
 10      1     2       8    6    8    9
         2     3       8    6    8    7
         3     6       8    6    7    6
 11      1     4       3   10   10    4
         2     4       2   10    9    5
         3     7       1    9    3    4
 12      1     0       0    0    0    0
************************************************************************
RESOURCEAVAILABILITIES:
  R 1  R 2  N 1  N 2
   19   17   54   59
************************************************************************
MAXIMAL LAGS:
from  to  type  delay
    1   12   ES      0
    1    2   ES      0
    2   12   ES      0
    1    3   ES      0
    3   12   ES      0
    1    4   ES      0
    4   12   ES      0
    1    5   ES      0
    5   12   ES      0
    1    6   ES      0
    6   12   ES      0
    1    7   ES      0
    7   12   ES      0
    1    8   ES      0
    8   12   ES      0
    1    9   ES      0
    9   12   ES      0
    1   10   ES      0
   10   12   ES      0
    1   11   ES      0
   11   12   ES      0
    1   12   ES      0
    2    9   SS     -2
    2    9   SE      3
    2    9   ES     -2
    2    9   EE      7
    2   11   SS      5
    2   11   SE     -6
    2   11   ES      8
    2   11   EE     -6
    3    5   SS      7
    3    5   SE      7
    3    5   ES     -9
    3    5   EE     -3
    3    6   SS     11
    3    6   SE    -11
    3    6   ES     11
    3    6   EE     -6
    4    6   SS      4
    4    6   SE      4
    4    6   ES     -3
    4    6   EE     -5
    4    7   SS      0
    4    7   SE      1
    4    7   ES     10
    4    7   EE    -12
    5    7   SS     -3
    5    7   SE     -4
    5    7   ES     -6
    5    7   EE     -8
    5   10   SS     -3
    5   10   SE    -12
    5   10   ES    -12
    5   10   EE      8
    5   11   SS      8
    5   11   SE     12
    5   11   ES      1
    5   11   EE    -10
    6   10   SS     -1
    6   10   SE      2
    6   10   ES     12
    6   10   EE     -8
    7    8   SS      2
    7    8   SE      8
    8    7   SE      0
    7    8   ES      0
    7    8   EE      5
    8    9   SS     -7
    8    9   SE      7
    8    9   ES      2
    8    9   EE     12
************************************************************************
